width,height
10,10
3,1
1,5
5,6
6,9
10,9
6,6
10,10
5,1
3,6
5,4
3,7
7,8
6,8
7,5
8,8
1,3
4,1
1,7
1,2
7,10
8,1
6,6
5,9
10,4
6,5
7,6
8,9
3,7
4,2
6,10
7,4
6,1
7,3
8,10
1,4
3,4
5,8
1,4
6,1
9,6
1,6
2,4
7,1
5,7
8,3
7,6
3,3
10,5
10,2
8,3
7,4
7,1
10,9
3,7
7,7
8,1
5,6
6,10
4,7
1,2
2,2
3,6
2,10
5,1
8,3
10,10
10,2
2,4
7,3
1,10
4,4
10,2
1,4
8,4
3,7
6,10
2,9
5,2
8,9
6,6
1,4
6,7
1,3
2,5
7,8
5,5
5,9
8,2
6,9
3,7
3,6
9,9
4,2
7,6
1,4
4,1
3,8
9,6
1,7
3,1
